(get-info :version)
; (:version "4.8.6")
; Started: 2020-05-19 03:52:30
; Silicon.version: 1.1-SNAPSHOT (ebfc142c+@(detached))
; Input file: dummy.vpr
; Verifier id: 00
; ------------------------------------------------------------
; Begin preamble
; ////////// Static preamble
; 
; ; /z3config.smt2
(set-option :print-success true) ; Boogie: false
(set-option :global-decls true) ; Boogie: default
(set-option :auto_config false) ; Usually a good idea
(set-option :smt.restart_strategy 0)
(set-option :smt.restart_factor |1.5|)
(set-option :smt.case_split 3)
(set-option :smt.delay_units true)
(set-option :smt.delay_units_threshold 16)
(set-option :nnf.sk_hack true)
(set-option :type_check true)
(set-option :smt.bv.reflect true)
(set-option :smt.mbqi false)
(set-option :smt.qi.eager_threshold 100)
(set-option :smt.qi.cost "(+ weight generation)")
(set-option :smt.qi.max_multi_patterns 1000)
(set-option :smt.phase_selection 0) ; default: 3, Boogie: 0
(set-option :sat.phase caching)
(set-option :sat.random_seed 0)
(set-option :nlsat.randomize true)
(set-option :nlsat.seed 0)
(set-option :nlsat.shuffle_vars false)
(set-option :fp.spacer.order_children 0) ; Not available with Z3 4.5
(set-option :fp.spacer.random_seed 0) ; Not available with Z3 4.5
(set-option :smt.arith.random_initial_value true) ; Boogie: true
(set-option :smt.random_seed 0)
(set-option :sls.random_offset true)
(set-option :sls.random_seed 0)
(set-option :sls.restart_init false)
(set-option :sls.walksat_ucb true)
(set-option :model.v2 true)
; 
; ; /preamble.smt2
(declare-datatypes () ((
    $Snap ($Snap.unit)
    ($Snap.combine ($Snap.first $Snap) ($Snap.second $Snap)))))
(declare-sort $Ref 0)
(declare-const $Ref.null $Ref)
(declare-sort $FPM)
(declare-sort $PPM)
(define-sort $Perm () Real)
(define-const $Perm.Write $Perm 1.0)
(define-const $Perm.No $Perm 0.0)
(define-fun $Perm.isValidVar ((p $Perm)) Bool
	(<= $Perm.No p))
(define-fun $Perm.isReadVar ((p $Perm) (ub $Perm)) Bool
    (and ($Perm.isValidVar p)
         (not (= p $Perm.No))
         (< p $Perm.Write)))
(define-fun $Perm.min ((p1 $Perm) (p2 $Perm)) Real
    (ite (<= p1 p2) p1 p2))
(define-fun $Math.min ((a Int) (b Int)) Int
    (ite (<= a b) a b))
(define-fun $Math.clip ((a Int)) Int
    (ite (< a 0) 0 a))
; ////////// Sorts
(declare-sort $FVF<$Ref>)
(declare-sort $PSF<$Snap>)
(declare-sort Set<$Snap>)
; ////////// Sort wrappers
; Declaring additional sort wrappers
(declare-fun $SortWrappers.IntTo$Snap (Int) $Snap)
(declare-fun $SortWrappers.$SnapToInt ($Snap) Int)
(assert (forall ((x Int)) (!
    (= x ($SortWrappers.$SnapToInt($SortWrappers.IntTo$Snap x)))
    :pattern (($SortWrappers.IntTo$Snap x))
    :qid |$Snap.$SnapToIntTo$Snap|
    )))
(assert (forall ((x $Snap)) (!
    (= x ($SortWrappers.IntTo$Snap($SortWrappers.$SnapToInt x)))
    :pattern (($SortWrappers.$SnapToInt x))
    :qid |$Snap.IntTo$SnapToInt|
    )))
(declare-fun $SortWrappers.BoolTo$Snap (Bool) $Snap)
(declare-fun $SortWrappers.$SnapToBool ($Snap) Bool)
(assert (forall ((x Bool)) (!
    (= x ($SortWrappers.$SnapToBool($SortWrappers.BoolTo$Snap x)))
    :pattern (($SortWrappers.BoolTo$Snap x))
    :qid |$Snap.$SnapToBoolTo$Snap|
    )))
(assert (forall ((x $Snap)) (!
    (= x ($SortWrappers.BoolTo$Snap($SortWrappers.$SnapToBool x)))
    :pattern (($SortWrappers.$SnapToBool x))
    :qid |$Snap.BoolTo$SnapToBool|
    )))
(declare-fun $SortWrappers.$RefTo$Snap ($Ref) $Snap)
(declare-fun $SortWrappers.$SnapTo$Ref ($Snap) $Ref)
(assert (forall ((x $Ref)) (!
    (= x ($SortWrappers.$SnapTo$Ref($SortWrappers.$RefTo$Snap x)))
    :pattern (($SortWrappers.$RefTo$Snap x))
    :qid |$Snap.$SnapTo$RefTo$Snap|
    )))
(assert (forall ((x $Snap)) (!
    (= x ($SortWrappers.$RefTo$Snap($SortWrappers.$SnapTo$Ref x)))
    :pattern (($SortWrappers.$SnapTo$Ref x))
    :qid |$Snap.$RefTo$SnapTo$Ref|
    )))
(declare-fun $SortWrappers.$PermTo$Snap ($Perm) $Snap)
(declare-fun $SortWrappers.$SnapTo$Perm ($Snap) $Perm)
(assert (forall ((x $Perm)) (!
    (= x ($SortWrappers.$SnapTo$Perm($SortWrappers.$PermTo$Snap x)))
    :pattern (($SortWrappers.$PermTo$Snap x))
    :qid |$Snap.$SnapTo$PermTo$Snap|
    )))
(assert (forall ((x $Snap)) (!
    (= x ($SortWrappers.$PermTo$Snap($SortWrappers.$SnapTo$Perm x)))
    :pattern (($SortWrappers.$SnapTo$Perm x))
    :qid |$Snap.$PermTo$SnapTo$Perm|
    )))
; Declaring additional sort wrappers
(declare-fun $SortWrappers.$FVF<$Ref>To$Snap ($FVF<$Ref>) $Snap)
(declare-fun $SortWrappers.$SnapTo$FVF<$Ref> ($Snap) $FVF<$Ref>)
(assert (forall ((x $FVF<$Ref>)) (!
    (= x ($SortWrappers.$SnapTo$FVF<$Ref>($SortWrappers.$FVF<$Ref>To$Snap x)))
    :pattern (($SortWrappers.$FVF<$Ref>To$Snap x))
    :qid |$Snap.$SnapTo$FVF<$Ref>To$Snap|
    )))
(assert (forall ((x $Snap)) (!
    (= x ($SortWrappers.$FVF<$Ref>To$Snap($SortWrappers.$SnapTo$FVF<$Ref> x)))
    :pattern (($SortWrappers.$SnapTo$FVF<$Ref> x))
    :qid |$Snap.$FVF<$Ref>To$SnapTo$FVF<$Ref>|
    )))
; Declaring additional sort wrappers
(declare-fun $SortWrappers.$PSF<$Snap>To$Snap ($PSF<$Snap>) $Snap)
(declare-fun $SortWrappers.$SnapTo$PSF<$Snap> ($Snap) $PSF<$Snap>)
(assert (forall ((x $PSF<$Snap>)) (!
    (= x ($SortWrappers.$SnapTo$PSF<$Snap>($SortWrappers.$PSF<$Snap>To$Snap x)))
    :pattern (($SortWrappers.$PSF<$Snap>To$Snap x))
    :qid |$Snap.$SnapTo$PSF<$Snap>To$Snap|
    )))
(assert (forall ((x $Snap)) (!
    (= x ($SortWrappers.$PSF<$Snap>To$Snap($SortWrappers.$SnapTo$PSF<$Snap> x)))
    :pattern (($SortWrappers.$SnapTo$PSF<$Snap> x))
    :qid |$Snap.$PSF<$Snap>To$SnapTo$PSF<$Snap>|
    )))
(declare-fun $SortWrappers.Set<$Snap>To$Snap (Set<$Snap>) $Snap)
(declare-fun $SortWrappers.$SnapToSet<$Snap> ($Snap) Set<$Snap>)
(assert (forall ((x Set<$Snap>)) (!
    (= x ($SortWrappers.$SnapToSet<$Snap>($SortWrappers.Set<$Snap>To$Snap x)))
    :pattern (($SortWrappers.Set<$Snap>To$Snap x))
    :qid |$Snap.$SnapToSet<$Snap>To$Snap|
    )))
(assert (forall ((x $Snap)) (!
    (= x ($SortWrappers.Set<$Snap>To$Snap($SortWrappers.$SnapToSet<$Snap> x)))
    :pattern (($SortWrappers.$SnapToSet<$Snap> x))
    :qid |$Snap.Set<$Snap>To$SnapToSet<$Snap>|
    )))
; ////////// Symbols
; /predicate_snap_sets_declarations.smt2 [Snap]
(declare-fun Set_equal (Set<$Snap> Set<$Snap>) Bool)
(declare-fun Set_in ($Snap Set<$Snap>) Bool)
(declare-fun Set_singleton ($Snap) Set<$Snap>)
; Declaring symbols related to program functions (from program analysis)
(declare-fun read$ ($Snap) $Perm)
(declare-fun read$%limited ($Snap) $Perm)
(declare-const read$%stateless Bool)
; Snapshot variable to be used during function verification
(declare-fun s@$ () $Snap)
; Declaring predicate trigger functions
(declare-fun never%trigger ($Snap $Ref) Bool)
(declare-fun ref$str%trigger ($Snap $Ref) Bool)
(declare-fun ref$tuple3$ref$str$u32$u32%trigger ($Snap $Ref) Bool)
(declare-fun str%trigger ($Snap $Ref) Bool)
(declare-fun tuple0$%trigger ($Snap $Ref) Bool)
(declare-fun tuple3$ref$str$u32$u32%trigger ($Snap $Ref) Bool)
(declare-fun u32%trigger ($Snap $Ref) Bool)
(declare-fun DeadBorrowToken$%trigger ($Snap Int) Bool)
; ////////// Uniqueness assumptions from domains
; ////////// Axioms
; End preamble
; ------------------------------------------------------------
; State saturation: after preamble
(set-option :timeout 100)
(check-sat)
; unknown
; ------------------------------------------------------------
; Begin function- and predicate-related preamble
; Declaring symbols related to program functions (from verification)
(assert (forall ((s@$ $Snap)) (!
  (= (read$%limited s@$) (read$ s@$))
  :pattern ((read$ s@$))
  )))
(assert (forall ((s@$ $Snap)) (!
  (as read$%stateless  Bool)
  :pattern ((read$%limited s@$))
  )))
(assert (forall ((s@$ $Snap)) (!
  (let ((result@0@00 (read$%limited s@$))) (and
    (< $Perm.No result@0@00)
    (< result@0@00 $Perm.Write)))
  :pattern ((read$%limited s@$))
  )))
; End function- and predicate-related preamble
; ------------------------------------------------------------
; ---------- builtin$havoc_int ----------
(declare-const ret@0@06 Int)
(declare-const ret@1@06 Int)
(push) ; 1
; State saturation: after contract
(set-option :timeout 50)
(check-sat)
; unknown
(push) ; 2
(pop) ; 2
(push) ; 2
; [exec]
; inhale false
(pop) ; 2
(pop) ; 1
